NAME : rbw2481
COMMENT : Bonn VLSI data set with 2481 points
COMMENT : Uni Bonn, Research Institute for Discrete Math
COMMENT : Contributed by Andre Rohe
TYPE : TSP
DIMENSION : 2481
EDGE_WEIGHT_TYPE : EUC_2D
NODE_COORD_SECTION
1 0 107
2 0 129
3 0 13
4 0 142
5 0 151
6 0 164
7 0 173
8 0 195
9 0 210
10 0 217
11 0 223
12 0 239
13 0 261
14 0 28
15 0 31
16 0 41
17 0 51
18 0 55
19 0 58
20 0 63
21 0 66
22 0 85
23 2 0
24 2 10
25 2 100
26 2 101
27 2 106
28 2 108
29 2 111
30 2 112
31 2 116
32 2 117
33 2 120
34 2 121
35 2 122
36 2 127
37 2 129
38 2 13
39 2 14
40 2 163
41 2 164
42 2 166
43 2 17
44 2 18
45 2 180
46 2 181
47 2 205
48 2 206
49 2 21
50 2 210
51 2 211
52 2 214
53 2 215
54 2 216
55 2 221
56 2 223
57 2 225
58 2 228
59 2 229
60 2 233
61 2 234
62 2 237
63 2 238
64 2 239
65 2 244
66 2 246
67 2 250
68 2 268
69 2 27
70 2 275
71 2 29
72 2 30
73 2 33
74 2 34
75 2 37
76 2 38
77 2 41
78 2 47
79 2 49
80 2 50
81 2 65
82 2 66
83 2 70
84 2 71
85 2 74
86 2 75
87 2 76
88 2 81
89 2 90
90 2 91
91 2 95
92 2 96
93 2 99
94 3 114
95 3 167
96 3 208
97 3 231
98 3 68
99 3 93
100 5 11
101 5 226
102 5 54
103 5 57
104 5 61
105 5 8
106 9 197
107 10 10
108 10 225
109 10 248
110 10 83
111 11 10
112 11 12
113 11 131
114 11 197
115 11 225
116 11 248
117 11 32
118 11 52
119 11 55
120 12 5
121 15 11
122 15 226
123 15 8
124 16 0
125 17 106
126 17 108
127 17 111
128 17 117
129 17 120
130 17 127
131 17 129
132 17 13
133 17 14
134 17 18
135 17 180
136 17 205
137 17 211
138 17 214
139 17 221
140 17 223
141 17 228
142 17 23
143 17 234
144 17 237
145 17 244
146 17 246
147 17 268
148 17 28
149 17 33
150 17 34
151 17 38
152 17 43
153 17 48
154 17 65
155 17 71
156 17 74
157 17 81
158 17 90
159 17 96
160 17 99
161 18 100
162 18 115
163 18 121
164 18 16
165 18 162
166 18 168
167 18 181
168 18 209
169 18 215
170 18 22
171 18 232
172 18 238
173 18 275
174 18 29
175 18 36
176 18 42
177 18 49
178 18 69
179 18 75
180 18 94
181 25 10
182 25 102
183 25 103
184 25 106
185 25 107
186 25 108
187 25 113
188 25 115
189 25 117
190 25 118
191 25 120
192 25 123
193 25 125
194 25 127
195 25 129
196 25 131
197 25 133
198 25 136
199 25 137
200 25 141
201 25 142
202 25 145
203 25 146
204 25 147
205 25 152
206 25 154
207 25 157
208 25 158
209 25 162
210 25 163
211 25 166
212 25 167
213 25 168
214 25 17
215 25 173
216 25 18
217 25 180
218 25 181
219 25 185
220 25 186
221 25 189
222 25 190
223 25 191
224 25 196
225 25 214
226 25 221
227 25 226
228 25 227
229 25 230
230 25 231
231 25 234
232 25 24
233 25 240
234 25 242
235 25 243
236 25 245
237 25 246
238 25 248
239 25 251
240 25 252
241 25 255
242 25 256
243 25 259
244 25 26
245 25 265
246 25 267
247 25 268
248 25 270
249 25 271
250 25 277
251 25 29
252 25 30
253 25 33
254 25 34
255 25 37
256 25 38
257 25 41
258 25 47
259 25 49
260 25 50
261 25 52
262 25 53
263 25 56
264 25 57
265 25 60
266 25 61
267 25 64
268 25 70
269 25 72
270 25 73
271 25 76
272 25 77
273 25 81
274 25 82
275 25 85
276 25 86
277 25 87
278 25 92
279 25 94
280 25 97
281 25 98
282 26 100
283 26 139
284 26 160
285 26 183
286 26 79
287 28 11
288 28 121
289 28 123
290 28 125
291 28 127
292 28 129
293 28 13
294 28 131
295 28 133
296 28 204
297 28 208
298 28 212
299 28 215
300 28 249
301 28 274
302 28 6
303 28 8
304 32 205
305 32 208
306 32 212
307 33 10
308 33 120
309 33 122
310 33 175
311 33 206
312 33 210
313 33 214
314 33 248
315 34 10
316 34 12
317 34 120
318 34 122
319 34 198
320 34 20
321 34 202
322 34 214
323 34 225
324 34 248
325 34 250
326 34 273
327 34 32
328 34 5
329 34 55
330 35 0
331 38 11
332 38 121
333 38 123
334 38 125
335 38 127
336 38 129
337 38 13
338 38 131
339 38 133
340 38 207
341 38 211
342 38 215
343 38 249
344 38 274
345 38 6
346 38 8
347 40 103
348 40 106
349 40 113
350 40 115
351 40 118
352 40 136
353 40 142
354 40 145
355 40 152
356 40 154
357 40 157
358 40 163
359 40 166
360 40 173
361 40 18
362 40 180
363 40 186
364 40 189
365 40 196
366 40 226
367 40 227
368 40 231
369 40 236
370 40 241
371 40 246
372 40 251
373 40 252
374 40 256
375 40 261
376 40 266
377 40 271
378 40 277
379 40 30
380 40 33
381 40 34
382 40 38
383 40 43
384 40 48
385 40 53
386 40 56
387 40 57
388 40 61
389 40 66
390 40 71
391 40 76
392 40 82
393 40 85
394 40 92
395 40 94
396 40 97
397 41 101
398 41 107
399 41 140
400 41 146
401 41 161
402 41 167
403 41 184
404 41 190
405 41 221
406 41 229
407 41 235
408 41 242
409 41 254
410 41 260
411 41 267
412 41 36
413 41 42
414 41 49
415 41 59
416 41 65
417 41 72
418 41 80
419 41 86
420 48 102
421 48 103
422 48 104
423 48 109
424 48 118
425 48 119
426 48 123
427 48 124
428 48 127
429 48 128
430 48 129
431 48 13
432 48 134
433 48 143
434 48 145
435 48 147
436 48 149
437 48 15
438 48 151
439 48 153
440 48 156
441 48 157
442 48 161
443 48 162
444 48 165
445 48 166
446 48 167
447 48 172
448 48 174
449 48 204
450 48 205
451 48 211
452 48 212
453 48 215
454 48 216
455 48 217
456 48 219
457 48 220
458 48 222
459 48 224
460 48 226
461 48 227
462 48 230
463 48 231
464 48 239
465 48 246
466 48 249
467 48 250
468 48 252
469 48 254
470 48 256
471 48 258
472 48 259
473 48 260
474 48 262
475 48 265
476 48 272
477 48 274
478 48 38
479 48 39
480 48 45
481 48 51
482 48 57
483 48 58
484 48 67
485 48 69
486 48 72
487 48 73
488 48 77
489 48 78
490 48 81
491 48 82
492 48 83
493 48 88
494 48 90
495 48 93
496 48 94
497 48 98
498 48 99
499 49 121
500 49 159
501 49 46
502 49 75
503 49 96
504 51 143
505 51 145
506 51 147
507 51 149
508 51 151
509 51 153
510 51 223
511 51 227
512 51 231
513 51 234
514 51 236
515 51 253
516 51 255
517 51 258
518 51 263
519 51 265
520 51 267
521 51 277
522 51 62
523 51 8
524 54 224
525 55 224
526 55 227
527 55 231
528 55 256
529 56 111
530 56 136
531 56 142
532 56 222
533 56 225
534 56 229
535 56 252
536 56 254
537 56 256
538 56 262
539 56 264
540 57 142
541 57 17
542 57 176
543 57 222
544 57 224
545 57 233
546 57 252
547 57 254
548 57 256
549 57 262
550 57 264
551 57 268
552 57 276
553 57 60
554 57 63
555 57 9
556 58 5
557 61 143
558 61 145
559 61 147
560 61 149
561 61 151
562 61 153
563 61 223
564 61 226
565 61 230
566 61 234
567 61 236
568 61 253
569 61 255
570 61 263
571 61 265
572 61 267
573 61 277
574 61 8
575 63 102
576 63 109
577 63 118
578 63 124
579 63 127
580 63 134
581 63 156
582 63 162
583 63 165
584 63 172
585 63 174
586 63 205
587 63 211
588 63 216
589 63 217
590 63 220
591 63 239
592 63 250
593 63 260
594 63 38
595 63 47
596 63 51
597 63 58
598 63 72
599 63 78
600 63 81
601 63 88
602 63 90
603 63 93
604 63 99
605 64 103
606 64 122
607 64 128
608 64 160
609 64 166
610 64 204
611 64 212
612 64 246
613 64 37
614 64 48
615 64 52
616 64 76
617 64 82
618 64 97
619 71 102
620 71 103
621 71 104
622 71 109
623 71 118
624 71 119
625 71 123
626 71 124
627 71 127
628 71 128
629 71 129
630 71 134
631 71 136
632 71 139
633 71 140
634 71 144
635 71 145
636 71 148
637 71 149
638 71 150
639 71 155
640 71 164
641 71 166
642 71 168
643 71 169
644 71 172
645 71 173
646 71 176
647 71 177
648 71 18
649 71 180
650 71 181
651 71 182
652 71 189
653 71 19
654 71 195
655 71 196
656 71 197
657 71 198
658 71 201
659 71 204
660 71 207
661 71 208
662 71 211
663 71 217
664 71 219
665 71 22
666 71 220
667 71 223
668 71 226
669 71 227
670 71 230
671 71 231
672 71 234
673 71 235
674 71 238
675 71 244
676 71 246
677 71 247
678 71 249
679 71 250
680 71 253
681 71 254
682 71 256
683 71 257
684 71 276
685 71 278
686 71 32
687 71 33
688 71 35
689 71 36
690 71 37
691 71 39
692 71 40
693 71 42
694 71 44
695 71 47
696 71 48
697 71 51
698 71 52
699 71 56
700 71 57
701 71 60
702 71 61
703 71 62
704 71 67
705 71 69
706 71 72
707 71 73
708 71 77
709 71 78
710 71 81
711 71 82
712 71 83
713 71 88
714 71 90
715 71 93
716 71 94
717 71 98
718 71 99
719 72 121
720 72 142
721 72 54
722 72 75
723 72 96
724 74 11
725 74 15
726 74 169
727 74 173
728 74 177
729 74 185
730 74 223
731 74 225
732 74 262
733 74 266
734 74 270
735 74 7
736 77 166
737 78 11
738 78 15
739 78 166
740 78 169
741 78 173
742 78 177
743 78 188
744 78 200
745 78 263
746 78 266
747 78 270
748 78 8
749 79 111
750 79 13
751 79 157
752 79 167
753 79 171
754 79 175
755 79 179
756 79 21
757 79 222
758 79 264
759 79 268
760 79 9
761 80 166
762 80 184
763 80 200
764 80 21
765 80 222
766 80 229
767 80 272
768 80 44
769 80 5
770 81 259
771 84 10
772 84 14
773 84 168
774 84 172
775 84 176
776 84 180
777 84 185
778 84 223
779 84 225
780 84 262
781 84 265
782 84 269
783 86 102
784 86 109
785 86 118
786 86 124
787 86 127
788 86 134
789 86 136
790 86 139
791 86 145
792 86 148
793 86 155
794 86 164
795 86 18
796 86 182
797 86 189
798 86 198
799 86 204
800 86 208
801 86 214
802 86 218
803 86 227
804 86 230
805 86 231
806 86 235
807 86 240
808 86 245
809 86 250
810 86 253
811 86 257
812 86 33
813 86 36
814 86 37
815 86 40
816 86 41
817 86 42
818 86 48
819 86 51
820 86 57
821 86 60
822 86 67
823 86 69
824 86 72
825 86 78
826 86 81
827 86 88
828 86 90
829 86 93
830 86 99
831 87 103
832 87 122
833 87 128
834 87 143
835 87 149
836 87 195
837 87 197
838 87 206
839 87 215
840 87 219
841 87 233
842 87 239
843 87 246
844 87 44
845 87 55
846 87 61
847 87 76
848 87 82
849 87 97
850 94 100
851 94 102
852 94 116
853 94 117
854 94 142
855 94 144
856 94 145
857 94 148
858 94 149
859 94 152
860 94 153
861 94 156
862 94 160
863 94 162
864 94 164
865 94 165
866 94 168
867 94 169
868 94 172
869 94 173
870 94 176
871 94 180
872 94 181
873 94 184
874 94 19
875 94 190
876 94 191
877 94 192
878 94 193
879 94 20
880 94 206
881 94 207
882 94 211
883 94 212
884 94 215
885 94 216
886 94 219
887 94 225
888 94 227
889 94 228
890 94 23
891 94 231
892 94 232
893 94 234
894 94 235
895 94 237
896 94 238
897 94 240
898 94 242
899 94 243
900 94 245
901 94 247
902 94 248
903 94 251
904 94 252
905 94 255
906 94 259
907 94 275
908 94 34
909 94 36
910 94 38
911 94 40
912 94 42
913 94 44
914 94 47
915 94 48
916 94 52
917 94 53
918 94 56
919 94 57
920 94 58
921 94 6
922 94 63
923 94 65
924 94 99
925 95 103
926 95 208
927 95 50
928 97 10
929 97 13
930 97 145
931 97 149
932 97 153
933 97 160
934 97 165
935 97 169
936 97 17
937 97 173
938 97 179
939 97 241
940 97 248
941 97 252
942 97 255
943 97 257
944 97 34
945 97 36
946 97 38
947 97 40
948 97 42
949 97 44
950 100 142
951 100 162
952 100 245
953 101 133
954 101 142
955 101 145
956 101 149
957 101 153
958 101 162
959 101 165
960 101 169
961 101 173
962 101 183
963 101 245
964 101 248
965 101 252
966 102 143
967 102 147
968 102 151
969 102 155
970 102 159
971 102 163
972 102 167
973 102 171
974 102 175
975 102 22
976 102 240
977 102 246
978 102 250
979 102 254
980 102 33
981 103 11
982 103 133
983 103 142
984 103 159
985 103 162
986 103 177
987 103 195
988 103 210
989 103 22
990 103 240
991 103 245
992 103 254
993 103 265
994 103 33
995 103 67
996 103 8
997 104 284
998 107 144
999 107 148
1000 107 152
1001 107 156
1002 107 160
1003 107 164
1004 107 168
1005 107 172
1006 107 176
1007 107 241
1008 107 247
1009 107 251
1010 107 255
1011 107 257
1012 107 34
1013 107 36
1014 107 38
1015 107 40
1016 107 42
1017 107 44
1018 108 0
1019 109 116
1020 109 181
1021 109 184
1022 109 193
1023 109 20
1024 109 211
1025 109 212
1026 109 216
1027 109 221
1028 109 226
1029 109 231
1030 109 235
1031 109 238
1032 109 243
1033 109 259
1034 109 47
1035 109 53
1036 109 56
1037 109 6
1038 109 63
1039 109 65
1040 110 104
1041 110 117
1042 110 190
1043 110 192
1044 110 205
1045 110 208
1046 110 214
1047 110 220
1048 110 227
1049 110 275
1050 110 51
1051 110 57
1052 110 98
1053 117 102
1054 117 111
1055 117 112
1056 117 116
1057 117 117
1058 117 120
1059 117 121
1060 117 122
1061 117 127
1062 117 129
1063 117 135
1064 117 148
1065 117 150
1066 117 152
1067 117 154
1068 117 157
1069 117 159
1070 117 160
1071 117 163
1072 117 164
1073 117 167
1074 117 173
1075 117 175
1076 117 176
1077 117 179
1078 117 185
1079 117 186
1080 117 187
1081 117 188
1082 117 211
1083 117 212
1084 117 213
1085 117 214
1086 117 218
1087 117 224
1088 117 230
1089 117 231
1090 117 234
1091 117 235
1092 117 238
1093 117 244
1094 117 246
1095 117 247
1096 117 250
1097 117 251
1098 117 254
1099 117 255
1100 117 258
1101 117 264
1102 117 266
1103 117 267
1104 117 276
1105 117 278
1106 117 38
1107 117 39
1108 117 45
1109 117 46
1110 117 49
1111 117 51
1112 117 52
1113 117 55
1114 117 56
1115 117 59
1116 117 60
1117 117 63
1118 117 65
1119 117 68
1120 117 70
1121 117 71
1122 117 74
1123 117 75
1124 117 86
1125 117 87
1126 117 91
1127 117 92
1128 117 95
1129 117 96
1130 117 97
1131 118 114
1132 118 219
1133 118 89
1134 120 132
1135 120 139
1136 120 142
1137 120 146
1138 120 149
1139 120 153
1140 120 157
1141 120 271
1142 120 52
1143 120 56
1144 120 6
1145 120 60
1146 120 65
1147 120 67
1148 120 71
1149 120 75
1150 120 8
1151 120 80
1152 120 82
1153 123 49
1154 123 68
1155 124 147
1156 124 178
1157 124 229
1158 124 49
1159 124 52
1160 124 56
1161 124 60
1162 124 68
1163 124 71
1164 124 75
1165 125 104
1166 125 147
1167 125 50
1168 125 54
1169 125 58
1170 125 62
1171 125 64
1172 125 69
1173 125 73
1174 126 10
1175 126 131
1176 126 137
1177 126 140
1178 126 147
1179 126 158
1180 126 190
1181 126 229
1182 126 249
1183 126 269
1184 126 272
1185 126 49
1186 126 5
1187 126 64
1188 126 68
1189 126 81
1190 127 77
1191 130 132
1192 130 51
1193 130 55
1194 130 59
1195 130 6
1196 130 63
1197 130 65
1198 130 67
1199 130 70
1200 130 74
1201 130 8
1202 130 80
1203 130 82
1204 132 102
1205 132 111
1206 132 117
1207 132 120
1208 132 127
1209 132 129
1210 132 135
1211 132 159
1212 132 160
1213 132 164
1214 132 169
1215 132 174
1216 132 179
1217 132 188
1218 132 211
1219 132 213
1220 132 220
1221 132 224
1222 132 232
1223 132 235
1224 132 240
1225 132 245
1226 132 250
1227 132 251
1228 132 255
1229 132 260
1230 132 265
1231 132 39
1232 132 45
1233 132 86
1234 132 92
1235 132 95
1236 133 115
1237 133 121
1238 133 162
1239 133 168
1240 133 175
1241 133 185
1242 133 187
1243 133 210
1244 133 212
1245 133 221
1246 133 225
1247 133 233
1248 133 241
1249 133 246
1250 133 253
1251 133 259
1252 133 266
1253 133 38
1254 133 46
1255 133 90
1256 133 96
1257 140 100
1258 140 101
1259 140 104
1260 140 105
1261 140 106
1262 140 11
1263 140 111
1264 140 113
1265 140 115
1266 140 116
1267 140 118
1268 140 119
1269 140 121
1270 140 122
1271 140 125
1272 140 126
1273 140 128
1274 140 129
1275 140 13
1276 140 130
1277 140 137
1278 140 138
1279 140 139
1280 140 146
1281 140 149
1282 140 15
1283 140 151
1284 140 152
1285 140 155
1286 140 156
1287 140 159
1288 140 160
1289 140 163
1290 140 169
1291 140 17
1292 140 171
1293 140 172
1294 140 174
1295 140 175
1296 140 178
1297 140 179
1298 140 182
1299 140 183
1300 140 186
1301 140 19
1302 140 192
1303 140 194
1304 140 195
1305 140 197
1306 140 198
1307 140 201
1308 140 202
1309 140 205
1310 140 206
1311 140 209
1312 140 21
1313 140 215
1314 140 217
1315 140 218
1316 140 221
1317 140 222
1318 140 225
1319 140 226
1320 140 229
1321 140 235
1322 140 237
1323 140 238
1324 140 24
1325 140 240
1326 140 241
1327 140 243
1328 140 245
1329 140 246
1330 140 249
1331 140 250
1332 140 252
1333 140 253
1334 140 261
1335 140 262
1336 140 268
1337 140 30
1338 140 31
1339 140 32
1340 140 33
1341 140 46
1342 140 47
1343 140 51
1344 140 52
1345 140 55
1346 140 56
1347 140 58
1348 140 6
1349 140 60
1350 140 62
1351 140 64
1352 140 65
1353 140 68
1354 140 69
1355 140 74
1356 140 75
1357 140 79
1358 140 80
1359 140 83
1360 140 84
1361 140 85
1362 140 90
1363 140 92
1364 140 95
1365 140 96
1366 141 48
1367 141 77
1368 141 98
1369 143 11
1370 143 13
1371 143 135
1372 143 143
1373 143 146
1374 143 15
1375 143 150
1376 143 17
1377 143 19
1378 143 21
1379 143 246
1380 143 258
1381 143 265
1382 143 272
1383 143 275
1384 143 279
1385 143 59
1386 143 61
1387 143 65
1388 143 69
1389 144 0
1390 146 243
1391 146 62
1392 147 23
1393 147 243
1394 147 246
1395 147 62
1396 147 65
1397 147 69
1398 148 10
1399 148 145
1400 148 149
1401 148 244
1402 148 58
1403 148 60
1404 148 63
1405 148 67
1406 149 10
1407 149 141
1408 149 145
1409 149 149
1410 149 154
1411 149 177
1412 149 200
1413 149 220
1414 149 243
1415 149 264
1416 149 270
1417 149 273
1418 149 35
1419 149 58
1420 149 60
1421 149 62
1422 150 132
1423 150 255
1424 153 11
1425 153 13
1426 153 135
1427 153 146
1428 153 15
1429 153 150
1430 153 17
1431 153 19
1432 153 21
1433 153 245
1434 153 258
1435 153 265
1436 153 59
1437 153 61
1438 153 64
1439 153 68
1440 155 101
1441 155 104
1442 155 111
1443 155 113
1444 155 116
1445 155 119
1446 155 122
1447 155 125
1448 155 129
1449 155 130
1450 155 138
1451 155 139
1452 155 152
1453 155 155
1454 155 156
1455 155 160
1456 155 165
1457 155 170
1458 155 175
1459 155 178
1460 155 179
1461 155 183
1462 155 188
1463 155 193
1464 155 198
1465 155 201
1466 155 202
1467 155 206
1468 155 211
1469 155 216
1470 155 221
1471 155 222
1472 155 226
1473 155 231
1474 155 236
1475 155 24
1476 155 241
1477 155 249
1478 155 253
1479 155 262
1480 155 268
1481 155 33
1482 155 51
1483 155 55
1484 155 6
1485 155 74
1486 155 80
1487 155 83
1488 155 90
1489 155 92
1490 155 95
1491 156 105
1492 156 158
1493 156 164
1494 156 171
1495 156 181
1496 156 187
1497 156 194
1498 156 204
1499 156 210
1500 156 217
1501 156 224
1502 156 230
1503 156 237
1504 156 30
1505 156 32
1506 156 45
1507 156 48
1508 156 78
1509 156 84
1510 156 99
1511 163 103
1512 163 104
1513 163 110
1514 163 111
1515 163 115
1516 163 121
1517 163 122
1518 163 123
1519 163 124
1520 163 126
1521 163 128
1522 163 129
1523 163 132
1524 163 133
1525 163 136
1526 163 138
1527 163 140
1528 163 142
1529 163 143
1530 163 146
1531 163 147
1532 163 150
1533 163 151
1534 163 154
1535 163 156
1536 163 158
1537 163 16
1538 163 164
1539 163 166
1540 163 172
1541 163 174
1542 163 175
1543 163 178
1544 163 179
1545 163 18
1546 163 182
1547 163 183
1548 163 186
1549 163 188
1550 163 189
1551 163 192
1552 163 199
1553 163 200
1554 163 203
1555 163 204
1556 163 207
1557 163 213
1558 163 215
1559 163 216
1560 163 219
1561 163 226
1562 163 228
1563 163 230
1564 163 232
1565 163 234
1566 163 236
1567 163 252
1568 163 268
1569 163 270
1570 163 272
1571 163 32
1572 163 33
1573 163 37
1574 163 38
1575 163 41
1576 163 46
1577 163 50
1578 163 53
1579 163 55
1580 163 56
1581 163 59
1582 163 60
1583 163 63
1584 163 64
1585 163 67
1586 164 34
1587 166 11
1588 166 129
1589 166 136
1590 166 138
1591 166 143
1592 166 147
1593 166 151
1594 166 156
1595 166 158
1596 166 169
1597 166 175
1598 166 179
1599 166 183
1600 166 226
1601 166 228
1602 166 230
1603 166 232
1604 166 234
1605 166 236
1606 166 241
1607 166 245
1608 166 249
1609 166 260
1610 166 264
1611 166 268
1612 166 270
1613 166 272
1614 166 274
1615 166 277
1616 166 46
1617 166 48
1618 166 50
1619 166 52
1620 166 56
1621 166 60
1622 166 64
1623 166 69
1624 166 7
1625 166 71
1626 169 126
1627 169 140
1628 169 172
1629 169 53
1630 170 114
1631 170 126
1632 170 129
1633 170 140
1634 170 143
1635 170 147
1636 170 151
1637 170 172
1638 170 175
1639 170 179
1640 170 183
1641 170 242
1642 170 245
1643 170 249
1644 170 53
1645 170 56
1646 170 60
1647 170 64
1648 171 127
1649 171 135
1650 171 141
1651 171 145
1652 171 149
1653 171 153
1654 171 155
1655 171 173
1656 171 177
1657 171 181
1658 171 185
1659 171 191
1660 171 218
1661 171 225
1662 171 243
1663 171 247
1664 171 251
1665 171 267
1666 171 45
1667 171 49
1668 171 54
1669 171 58
1670 171 62
1671 171 66
1672 172 12
1673 172 126
1674 172 135
1675 172 140
1676 172 155
1677 172 160
1678 172 168
1679 172 172
1680 172 191
1681 172 198
1682 172 21
1683 172 218
1684 172 225
1685 172 251
1686 172 258
1687 172 267
1688 172 275
1689 172 45
1690 172 49
1691 172 5
1692 172 53
1693 172 68
1694 172 75
1695 173 238
1696 173 8
1697 176 11
1698 176 128
1699 176 136
1700 176 138
1701 176 142
1702 176 146
1703 176 150
1704 176 154
1705 176 156
1706 176 158
1707 176 169
1708 176 174
1709 176 178
1710 176 182
1711 176 186
1712 176 226
1713 176 228
1714 176 230
1715 176 232
1716 176 234
1717 176 236
1718 176 241
1719 176 244
1720 176 248
1721 176 268
1722 176 270
1723 176 272
1724 176 274
1725 176 46
1726 176 48
1727 176 50
1728 176 52
1729 176 55
1730 176 59
1731 176 63
1732 176 67
1733 176 69
1734 176 71
1735 177 192
1736 177 219
1737 177 252
1738 178 104
1739 178 110
1740 178 115
1741 178 124
1742 178 132
1743 178 188
1744 178 199
1745 178 200
1746 178 204
1747 178 209
1748 178 214
1749 178 37
1750 178 41
1751 179 103
1752 179 111
1753 179 121
1754 179 123
1755 179 202
1756 179 208
1757 179 215
1758 179 31
1759 179 34
1760 186 103
1761 186 104
1762 186 107
1763 186 109
1764 186 11
1765 186 111
1766 186 113
1767 186 115
1768 186 117
1769 186 129
1770 186 130
1771 186 132
1772 186 135
1773 186 140
1774 186 142
1775 186 144
1776 186 146
1777 186 148
1778 186 150
1779 186 152
1780 186 154
1781 186 155
1782 186 158
1783 186 159
1784 186 162
1785 186 163
1786 186 166
1787 186 167
1788 186 169
1789 186 170
1790 186 173
1791 186 174
1792 186 177
1793 186 178
1794 186 181
1795 186 183
1796 186 185
1797 186 187
1798 186 189
1799 186 191
1800 186 193
1801 186 196
1802 186 198
1803 186 20
1804 186 201
1805 186 202
1806 186 205
1807 186 206
1808 186 209
1809 186 215
1810 186 217
1811 186 218
1812 186 22
1813 186 220
1814 186 222
1815 186 223
1816 186 226
1817 186 227
1818 186 230
1819 186 231
1820 186 234
1821 186 235
1822 186 237
1823 186 238
1824 186 24
1825 186 241
1826 186 242
1827 186 245
1828 186 246
1829 186 249
1830 186 251
1831 186 252
1832 186 26
1833 186 267
1834 186 269
1835 186 28
1836 186 30
1837 186 33
1838 186 35
1839 186 37
1840 186 39
1841 186 41
1842 186 43
1843 186 45
1844 186 47
1845 186 48
1846 186 51
1847 186 52
1848 186 55
1849 186 56
1850 186 59
1851 186 6
1852 186 63
1853 186 74
1854 186 76
1855 186 78
1856 186 79
1857 186 82
1858 186 83
1859 186 85
1860 186 98
1861 186 99
1862 187 100
1863 188 284
1864 189 107
1865 189 109
1866 189 11
1867 189 111
1868 189 113
1869 189 115
1870 189 117
1871 189 121
1872 189 124
1873 189 128
1874 189 13
1875 189 140
1876 189 142
1877 189 144
1878 189 146
1879 189 148
1880 189 15
1881 189 150
1882 189 155
1883 189 159
1884 189 163
1885 189 17
1886 189 170
1887 189 174
1888 189 178
1889 189 183
1890 189 185
1891 189 187
1892 189 189
1893 189 191
1894 189 193
1895 189 20
1896 189 22
1897 189 223
1898 189 227
1899 189 231
1900 189 238
1901 189 24
1902 189 242
1903 189 246
1904 189 257
1905 189 26
1906 189 261
1907 189 272
1908 189 275
1909 189 277
1910 189 28
1911 189 30
1912 189 33
1913 189 35
1914 189 37
1915 189 39
1916 189 41
1917 189 43
1918 189 48
1919 189 52
1920 189 56
1921 189 72
1922 189 75
1923 189 79
1924 189 83
1925 189 86
1926 192 152
1927 192 167
1928 192 220
1929 192 235
1930 192 45
1931 192 76
1932 193 152
1933 193 155
1934 193 159
1935 193 163
1936 193 167
1937 193 170
1938 193 174
1939 193 178
1940 193 220
1941 193 223
1942 193 227
1943 193 231
1944 193 235
1945 193 238
1946 193 242
1947 193 246
1948 193 254
1949 193 257
1950 193 261
1951 193 45
1952 193 48
1953 193 52
1954 193 56
1955 193 76
1956 193 79
1957 193 83
1958 194 10
1959 194 106
1960 194 139
1961 194 153
1962 194 157
1963 194 161
1964 194 165
1965 194 168
1966 194 172
1967 194 176
1968 194 180
1969 194 182
1970 194 19
1971 194 221
1972 194 225
1973 194 229
1974 194 233
1975 194 236
1976 194 240
1977 194 244
1978 194 248
1979 194 255
1980 194 259
1981 194 32
1982 194 46
1983 194 50
1984 194 54
1985 194 58
1986 194 62
1987 194 74
1988 194 77
1989 194 81
1990 194 85
1991 195 10
1992 195 106
1993 195 119
1994 195 122
1995 195 139
1996 195 14
1997 195 152
1998 195 167
1999 195 182
2000 195 19
2001 195 200
2002 195 220
2003 195 235
2004 195 263
2005 195 271
2006 195 274
2007 195 32
2008 195 45
2009 195 62
2010 195 74
2011 195 76
2012 195 85
2013 195 87
2014 196 69
2015 199 107
2016 199 109
2017 199 11
2018 199 111
2019 199 113
2020 199 115
2021 199 117
2022 199 13
2023 199 140
2024 199 142
2025 199 144
2026 199 146
2027 199 148
2028 199 15
2029 199 150
2030 199 154
2031 199 158
2032 199 162
2033 199 166
2034 199 169
2035 199 17
2036 199 173
2037 199 177
2038 199 181
2039 199 183
2040 199 185
2041 199 187
2042 199 189
2043 199 191
2044 199 193
2045 199 20
2046 199 22
2047 199 222
2048 199 226
2049 199 230
2050 199 234
2051 199 237
2052 199 24
2053 199 241
2054 199 245
2055 199 249
2056 199 256
2057 199 26
2058 199 260
2059 199 272
2060 199 275
2061 199 277
2062 199 28
2063 199 30
2064 199 33
2065 199 35
2066 199 37
2067 199 39
2068 199 41
2069 199 43
2070 199 47
2071 199 51
2072 199 55
2073 199 59
2074 199 72
2075 199 75
2076 199 78
2077 199 82
2078 199 86
2079 200 63
2080 201 103
2081 201 130
2082 201 132
2083 201 135
2084 201 196
2085 201 198
2086 201 201
2087 201 202
2088 201 206
2089 201 211
2090 201 216
2091 201 251
2092 201 6
2093 202 100
2094 202 204
2095 202 210
2096 202 217
2097 202 97
2098 209 101
2099 209 107
2100 209 108
2101 209 109
2102 209 110
2103 209 112
2104 209 114
2105 209 115
2106 209 118
2107 209 119
2108 209 122
2109 209 123
2110 209 126
2111 209 128
2112 209 130
2113 209 132
2114 209 135
2115 209 137
2116 209 138
2117 209 141
2118 209 142
2119 209 145
2120 209 146
2121 209 149
2122 209 151
2123 209 153
2124 209 155
2125 209 157
2126 209 159
2127 209 161
2128 209 163
2129 209 166
2130 209 167
2131 209 169
2132 209 171
2133 209 173
2134 209 174
2135 209 177
2136 209 178
2137 209 193
2138 209 195
2139 209 199
2140 209 20
2141 209 201
2142 209 203
2143 209 205
2144 209 207
2145 209 209
2146 209 211
2147 209 212
2148 209 22
2149 209 223
2150 209 23
2151 209 230
2152 209 232
2153 209 234
2154 209 236
2155 209 238
2156 209 240
2157 209 243
2158 209 244
2159 209 246
2160 209 248
2161 209 249
2162 209 252
2163 209 253
2164 209 256
2165 209 26
2166 209 263
2167 209 268
2168 209 27
2169 209 30
2170 209 31
2171 209 34
2172 209 35
2173 209 37
2174 209 38
2175 209 41
2176 209 42
2177 209 45
2178 209 47
2179 209 49
2180 209 51
2181 209 53
2182 209 55
2183 209 63
2184 209 65
2185 209 67
2186 209 69
2187 209 71
2188 209 73
2189 209 76
2190 209 80
2191 209 89
2192 209 95
2193 209 96
2194 209 97
2195 209 98
2196 212 115
2197 212 119
2198 212 12
2199 212 123
2200 212 128
2201 212 130
2202 212 132
2203 212 134
2204 212 138
2205 212 142
2206 212 146
2207 212 151
2208 212 153
2209 212 155
2210 212 157
2211 212 159
2212 212 161
2213 212 164
2214 212 17
2215 212 170
2216 212 174
2217 212 178
2218 212 183
2219 212 187
2220 212 199
2221 212 201
2222 212 203
2223 212 205
2224 212 207
2225 212 209
2226 212 216
2227 212 220
2228 212 23
2229 212 230
2230 212 232
2231 212 234
2232 212 236
2233 212 238
2234 212 240
2235 212 249
2236 212 253
2237 212 268
2238 212 27
2239 212 270
2240 212 272
2241 212 275
2242 212 277
2243 212 31
2244 212 38
2245 212 42
2246 212 45
2247 212 47
2248 212 49
2249 212 51
2250 212 53
2251 212 55
2252 212 59
2253 212 63
2254 212 65
2255 212 67
2256 212 69
2257 212 71
2258 212 73
2259 212 8
2260 215 112
2261 215 135
2262 215 171
2263 215 20
2264 215 246
2265 215 35
2266 215 9
2267 216 100
2268 216 112
2269 216 115
2270 216 119
2271 216 123
2272 216 135
2273 216 138
2274 216 142
2275 216 146
2276 216 171
2277 216 174
2278 216 178
2279 216 180
2280 216 183
2281 216 187
2282 216 20
2283 216 23
2284 216 246
2285 216 249
2286 216 253
2287 216 27
2288 216 31
2289 216 35
2290 216 38
2291 216 42
2292 216 88
2293 217 113
2294 217 117
2295 217 121
2296 217 125
2297 217 127
2298 217 136
2299 217 140
2300 217 144
2301 217 148
2302 217 150
2303 217 163
2304 217 169
2305 217 172
2306 217 176
2307 217 181
2308 217 185
2309 217 198
2310 217 21
2311 217 222
2312 217 229
2313 217 247
2314 217 25
2315 217 251
2316 217 267
2317 217 29
2318 217 33
2319 217 36
2320 217 40
2321 217 44
2322 217 62
2323 217 79
2324 218 112
2325 218 127
2326 218 135
2327 218 150
2328 218 163
2329 218 169
2330 218 171
2331 218 189
2332 218 198
2333 218 20
2334 218 214
2335 218 222
2336 218 229
2337 218 246
2338 218 267
2339 218 271
2340 218 274
2341 218 35
2342 218 44
2343 218 57
2344 218 62
2345 218 79
2346 219 217
2347 219 5
2348 222 114
2349 222 118
2350 222 12
2351 222 122
2352 222 126
2353 222 128
2354 222 130
2355 222 132
2356 222 134
2357 222 137
2358 222 141
2359 222 145
2360 222 149
2361 222 151
2362 222 153
2363 222 155
2364 222 157
2365 222 159
2366 222 161
2367 222 164
2368 222 17
2369 222 170
2370 222 173
2371 222 177
2372 222 182
2373 222 186
2374 222 199
2375 222 201
2376 222 203
2377 222 205
2378 222 207
2379 222 209
2380 222 22
2381 222 220
2382 222 230
2383 222 232
2384 222 234
2385 222 236
2386 222 238
2387 222 240
2388 222 248
2389 222 252
2390 222 26
2391 222 268
2392 222 270
2393 222 272
2394 222 275
2395 222 277
2396 222 30
2397 222 34
2398 222 37
2399 222 41
2400 222 45
2401 222 47
2402 222 49
2403 222 51
2404 222 53
2405 222 55
2406 222 63
2407 222 65
2408 222 67
2409 222 69
2410 222 71
2411 222 73
2412 222 8
2413 223 223
2414 223 80
2415 224 101
2416 224 110
2417 224 166
2418 224 212
2419 224 243
2420 224 256
2421 224 76
2422 224 89
2423 224 98
2424 225 107
2425 225 109
2426 225 263
2427 225 95
2428 225 97
2429 249 103
2430 249 110
2431 249 111
2432 249 112
2433 249 113
2434 249 114
2435 249 118
2436 249 148
2437 249 153
2438 249 158
2439 249 16
2440 249 162
2441 249 163
2442 249 168
2443 249 173
2444 249 178
2445 249 181
2446 249 182
2447 249 183
2448 249 188
2449 249 193
2450 249 198
2451 249 2
2452 249 203
2453 249 208
2454 249 21
2455 249 213
2456 249 218
2457 249 223
2458 249 228
2459 249 230
2460 249 233
2461 249 238
2462 249 243
2463 249 248
2464 249 253
2465 249 258
2466 249 26
2467 249 263
2468 249 268
2469 249 273
2470 249 278
2471 249 28
2472 249 31
2473 249 36
2474 249 41
2475 249 46
2476 249 51
2477 249 56
2478 249 6
2479 249 61
2480 249 66
2481 249 74
EOF
